SCIP Status        : solving was interrupted [time limit reached]
Total Time         :    3600.01
  solving          :    3600.00
  presolving       :       0.30 (included in solving)
  reading          :       0.01
  copying          :       0.57 (42 #copies) (minimal 0.00, maximal 0.06, average 0.01)
Original Problem   :
  Problem name     : bbbenchmark/pw09_100.6.cut
  Variables        : 101 (100 binary, 0 integer, 0 implicit integer, 1 continuous)
  Constraints      : 1 initial, 1 maximal
  Objective        : minimize, 1 non-zeros (abs.min = 1, abs.max = 1)
Presolved Problem  :
  Problem name     : t_bbbenchmark/pw09_100.6.cut
  Variables        : 1330 (100 binary, 0 integer, 1181 implicit integer, 49 continuous)
  Constraints      : 1326 initial, 7365 maximal
  Objective        : minimize, 1 non-zeros (abs.min = 1, abs.max = 1)
  Nonzeros         : 11661 constraint, 202 clique table
Presolvers         :   ExecTime  SetupTime  Calls  FixedVars   AggrVars   ChgTypes  ChgBounds   AddHoles    DelCons    AddCons   ChgSides   ChgCoefs
  boundshift       :       0.00       0.00      0          0          0          0          0          0          0          0          0          0
  convertinttobin  :       0.00       0.00      0          0          0          0          0          0          0          0          0          0
  domcol           :       0.00       0.00      1          0          0          0          0          0          0          0          0          0
  dualagg          :       0.00       0.00      0          0          0          0          0          0          0          0          0          0
  dualcomp         :       0.00       0.00      1          0          0          0          0          0          0          0          0          0
  dualinfer        :       0.00       0.00      0          0          0          0          0          0          0          0          0          0
  dualsparsify     :       0.00       0.00      1          0          0          0          0          0          0          0          0          0
  gateextraction   :       0.00       0.00      0          0          0          0          0          0          0          0          0          0
  implics          :       0.00       0.00      2          0          0          0          0          0          0          0          0          0
  inttobinary      :       0.00       0.00      0          0          0          0          0          0          0          0          0          0
  qpkktref         :       0.00       0.00      0          0          0          0          0          0          0          0          0          0
  redvub           :       0.00       0.00      0          0          0          0          0          0          0          0          0          0
  sparsify         :       0.00       0.00      1          0          0          0          0          0          0          0          0          0
  stuffing         :       0.00       0.00      0          0          0          0          0          0          0          0          0          0
  trivial          :       0.00       0.00      4          0          0          0          0          0          0          0          0          0
  tworowbnd        :       0.00       0.00      0          0          0          0          0          0          0          0          0          0
  dualfix          :       0.00       0.00      4          0          0          0          0          0          0          0          0          0
  genvbounds       :       0.00       0.00      0          0          0          0          0          0          0          0          0          0
  probing          :       0.11       0.00      1          0          0          0          0          0          0          0          0          0
  pseudoobj        :       0.00       0.00      1          0          0          0          1          0          0          0          0          0
  symmetry         :       0.00       0.00      0          0          0          0          0          0          0          0          0          0
  vbounds          :       0.00       0.00      1          0          0          0          0          0          0          0          0          0
  varbound         :       0.00       0.00      2          0          0          0          0          0          0          0          0          0
  and              :       0.00       0.00      2          0          0          0          0          0          0          0          0          0
  linear           :       0.00       0.00      2          0          0          0          0          0          0          0          0          0
  logicor          :       0.00       0.00      0          0          0          0          0          0          0          0          0          0
  bounddisjunction :       0.00       0.00      0          0          0          0          0          0          0          0          0          0
  nonlinear        :       0.18       0.00      5          0          0          0          1          0          0       1325          0          0
  benders          :       0.00       0.00      0          0          0          0          0          0          0          0          0          0
  components       :       0.00       0.00      1          0          0          0          0          0          0          0          0          0
  root node        :          -          -      -          0          -          -          7          -          -          -          -          -
Constraints        :     Number  MaxNumber  #Separate #Propagate    #EnfoLP    #EnfoRelax  #EnfoPS    #Check   #ResProp    Cutoffs    DomReds       Cuts    Applied      Conss   Children
  benderslp        :          0          0          0          0     113047          0          0      16411          0          0          0          0          0          0          0
  integral         :          0          0          0          0     113047          0          0      16411          0          0         58          0          0         30     225996
  varbound         :         48         48         34     766075          0          0          0       5070        168          0      69875          0          0          0          0
  and              :       1181       1181     143981     776105          0          0          0       1208     152781          1     504574      18785      16418          0          0
  linear           :         97+       151         34     776345          0          0          0       1206      18383         82    1645418          0          0          0          0
  logicor          :          0+      2334          0      59469          0          0          0          0         12        270          0          0          0          0          0
  bounddisjunction :          0+      3676          0      77202          0          0          0          0          6         60          0          0          0          0          0
  benders          :          0          0          0          0          0          0          0        148          0          0          0          0          0          0          0
  countsols        :          0          0          0          0          0          0          0        148          0          0          0          0          0          0          0
  components       :          0          0          0          0          0          0          0          0          0          0          0          0          0          0          0
Constraint Timings :  TotalTime  SetupTime   Separate  Propagate     EnfoLP     EnfoPS     EnfoRelax   Check    ResProp    SB-Prop
  benderslp        :       0.10       0.00       0.00       0.00       0.10       0.00       0.00       0.00       0.00       0.00
  integral         :      30.96       0.00       0.00       0.00      30.65       0.00       0.00       0.31       0.00       0.00
  varbound         :       1.09       0.00       0.00       0.99       0.00       0.00       0.00       0.09       0.00       0.01
  and              :      54.12       0.00      40.54      13.14       0.00       0.00       0.00       0.20       0.16       0.08
  linear           :      11.19       0.00       0.01      11.03       0.00       0.00       0.00       0.00       0.09       0.06
  logicor          :       1.49       0.00       0.00       1.49       0.00       0.00       0.00       0.00       0.00       0.00
  bounddisjunction :       2.48       0.00       0.00       2.45       0.00       0.00       0.00       0.00       0.00       0.03
  benders          :       0.00       0.00       0.00       0.00       0.00       0.00       0.00       0.00       0.00       0.00
  countsols        :       0.00       0.00       0.00       0.00       0.00       0.00       0.00       0.00       0.00       0.00
  components       :       0.13       0.00       0.00       0.13       0.00       0.00       0.00       0.00       0.00       0.00
Propagators        : #Propagate   #ResProp    Cutoffs    DomReds
  dualfix          :          2          0          0          0
  genvbounds       :          0          0          0          0
  nlobbt           :          0          0          0          0
  obbt             :          0          0          0          0
  probing          :          0          0          0          0
  pseudoobj        :     504277          2          0       1951
  redcost          :     273692          0          0     104395
  rootredcost      :         15          0          0          0
  symmetry         :          0          0          0          0
  vbounds          :     138561          0          0          0
Propagator Timings :  TotalTime  SetupTime   Presolve  Propagate    ResProp    SB-Prop
  dualfix          :       0.00       0.00       0.00       0.00       0.00       0.00
  genvbounds       :       0.37       0.00       0.00       0.37       0.00       0.00
  nlobbt           :       0.00       0.00       0.00       0.00       0.00       0.00
  obbt             :       0.00       0.00       0.00       0.00       0.00       0.00
  probing          :       0.11       0.00       0.11       0.00       0.00       0.00
  pseudoobj        :       0.67       0.00       0.00       0.67       0.00       0.00
  redcost          :       9.46       0.00       0.00       9.46       0.00       0.00
  rootredcost      :       0.50       0.00       0.00       0.50       0.00       0.00
  symmetry         :       0.27       0.00       0.00       0.27       0.00       0.00
  vbounds          :       0.52       0.00       0.00       0.52       0.00       0.00
Conflict Analysis  :       Time      Calls    Success    DomReds  Conflicts   Literals    Reconvs ReconvLits   Dualrays   Nonzeros   LP Iters   (pool size: [10000,10000])
  propagation      :       0.00        331        206          -        276       75.2          0        0.0          -          -          -
  infeasible LP    :       0.09         87         87          -       1802      140.6          0        0.0        147      139.8          0
  bound exceed. LP :      13.38       4518       4339          -      58368      107.2          0        0.0          0        0.0      67374
  strong branching :       0.00          0          0          -          0        0.0          0        0.0          -          -          0
  pseudo solution  :       0.00          0          0          -          0        0.0          0        0.0          -          -          -
  applied globally :       0.08          -          -          0      16781       94.3          -          -        147          -          -
  applied locally  :          -          -          -          0          0        0.0          -          -          0          -          -
Separators         :   ExecTime  SetupTime      Calls  RootCalls    Cutoffs    DomReds  FoundCuts ViaPoolAdd  DirectAdd    Applied ViaPoolApp  DirectApp      Conss
  cut pool         :       2.94          -      30182         56          -          -      35469     410549          -          -          -          -          -    (maximal pool size:       1919)
  aggregation      :      53.91       0.00       6730         34          0          0       3573      10242          0       4250       4250          0          0
  > cmir           :          -          -          -          -          -          -          -      10190          0       4227       4227          0          -
  > flowcover      :          -          -          -          -          -          -          -         52          0         23         23          0          -
  > knapsackcover  :          -          -          -          -          -          -          -          0          0          0          0          0          -
  cgmip            :       0.00       0.00          0          0          0          0          0          0          0          0          0          0          0
  clique           :       0.00       0.00         34         34          0          0          0          0          0          0          0          0          0
  closecuts        :       0.00       0.00          0          0          0          0          0          0          0          0          0          0          0
  convexproj       :       0.00       0.00          0          0          0          0          0          0          0          0          0          0          0
  disjunctive      :       0.00       0.00          0          0          0          0          0          0          0          0          0          0          0
  eccuts           :       0.00       0.00          0          0          0          0          0          0          0          0          0          0          0
  gauge            :       0.00       0.00          0          0          0          0          0          0          0          0          0          0          0
  gomory           :       0.00       0.00          0          0          0          0          0          0          0          0          0          0          0
  > gomorymi       :          -          -          -          -          -          -          -          0          0          0          0          0          -
  > strongcg       :          -          -          -          -          -          -          -          0          0          0          0          0          -
  impliedbounds    :       0.51       0.00       6730         34          0          0         63         10          0          8          8          0          0
  interlattice     :       0.03       0.00          7          7          0          0          7          0          7          7          0          7          0
  interminor       :       0.00       0.00          0          0          0          0          0          0          0          0          0          0          0
  intersub         :       0.03       0.00          1          1          0          0          0          0          0          0          0          0          0
  intobj           :       0.00       0.00          0          0          0          0          0          0          0          0          0          0          0
  mcf              :       0.00       0.00          1          1          0          0          0          0          0          0          0          0          0
  minor            :       0.02       0.00          0          0          0          0          0          0          0          0          0          0          0
  mixing           :       0.01       0.00       6730         34          0          0          0          0          0          0          0          0          0
  oddcycle         :       0.00       0.00          0          0          0          0          0          0          0          0          0          0          0
  rapidlearning    :       0.00       0.00          0          0          0          0          0          0          0          0          0          0          0
  rlt              :       0.00       0.00         10         10          0          0          0          0          0          0          0          0          0
  zerohalf         :      36.10       0.00       6366         20          0          0      31833     400297          0      97504      97504          0          0
Cutselectors       :   ExecTime  SetupTime      Calls  RootCalls   Selected     Forced   Filtered  RootSelec   RootForc   RootFilt 
  hybrid           :       0.31       0.00      22734         34     118187          0     311154        137          0         30
Pricers            :   ExecTime  SetupTime      Calls       Vars
  problem variables:       0.00          -          0          0
Branching Rules    :   ExecTime  SetupTime   BranchLP  BranchExt   BranchPS    Cutoffs    DomReds       Cuts      Conss   Children
  allfullstrong    :       0.00       0.00          0          0          0          0          0          0          0          0
  cloud            :       0.00       0.00          0          0          0          0          0          0          0          0
  distribution     :       0.00       0.00          0          0          0          0          0          0          0          0
  fullstrong       :       0.00       0.00          0          0          0          0          0          0          0          0
  inference        :       0.00       0.00          0          0          0          0          0          0          0          0
  leastinf         :       0.00       0.00          0          0          0          0          0          0          0          0
  lookahead        :       0.00       0.00          0          0          0          0          0          0          0          0
  mostinf          :       0.00       0.00          0          0          0          0          0          0          0          0
  multaggr         :       0.00       0.00          0          0          0          0          0          0          0          0
  nodereopt        :       0.00       0.00          0          0          0          0          0          0          0          0
  pscost           :       0.00       0.00          0          0          0          0          0          0          0          0
  random           :       0.00       0.00          0          0          0          0          0          0          0          0
  relpscost        :      30.36       0.00     113047          0          0          0         58          0         30     225996
  vanillafullstrong:       0.00       0.00          0          0          0          0          0          0          0          0
Primal Heuristics  :   ExecTime  SetupTime      Calls      Found       Best
  LP solutions     :       0.00          -          -          0          0
  relax solutions  :       0.00          -          -          0          0
  pseudo solutions :       0.00          -          -          0          0
  strong branching :       0.00          -          -          0          0
  actconsdiving    :       0.00       0.00          0          0          0
  adaptivediving   :       3.61       0.00         70          0          0
  alns             :       0.60       0.00         13          0          0
  bound            :       0.00       0.00          0          0          0
  clique           :       0.00       0.00          1          0          0
  coefdiving       :       0.00       0.00          0          0          0
  completesol      :       0.00       0.00          0          0          0
  conflictdiving   :      66.24       0.00        484          1          1
  crossover        :       6.71       0.00          5          1          1
  dins             :       0.00       0.00          0          0          0
  distributiondivin:      69.06       0.00        484          0          0
  dps              :       0.00       0.00          0          0          0
  dualval          :       0.00       0.00          0          0          0
  farkasdiving     :       0.00       0.00          0          0          0
  feaspump         :       0.08       0.00          2          1          0
  fixandinfer      :       0.00       0.00          0          0          0
  fracdiving       :      29.44       0.00        484          0          0
  gins             :       0.09       0.00          0          0          0
  guideddiving     :      30.58       0.00        484          1          1
  indicator        :       0.10       0.00          0          0          0
  indicatordiving  :       0.00       0.00          0          0          0
  intdiving        :       0.00       0.00          0          0          0
  intshifting      :       0.86       0.00         92          0          0
  linesearchdiving :      31.82       0.00        484          5          5
  localbranching   :       0.00       0.00          0          0          0
  locks            :       0.01       0.00          1          0          0
  lpface           :       0.09       0.00          0          0          0
  mpec             :      41.58       0.00         11          0          0
  multistart       :       0.00       0.00          0          0          0
  mutation         :       0.00       0.00          0          0          0
  nlpdiving        :       8.38       0.00          3          1          0
  objpscostdiving  :     118.15       0.00        242         91          1
  octane           :       0.00       0.00          0          0          0
  ofins            :       0.09       0.00          0          0          0
  oneopt           :       0.07       0.00         17          0          0
  padm             :       0.00       0.00          0          0          0
  proximity        :       0.00       0.00          0          0          0
  pscostdiving     :      50.43       0.00        484          4          4
  randrounding     :       1.14       0.00      16277          0          0
  rens             :       0.00       0.00          0          0          0
  reoptsols        :       0.00       0.00          0          0          0
  repair           :       0.00       0.00          0          0          0
  rins             :       2.85       0.00         23          0          0
  rootsoldiving    :      16.76       0.00        242         36          1
  rounding         :       1.14       0.00       5050          0          0
  shiftandpropagate:       0.00       0.00          0          0          0
  shifting         :      17.78       0.00       7008          1          1
  simplerounding   :       0.11       0.00          0          0          0
  subnlp           :      93.03       0.00          0          0          0
  trivial          :       0.02       0.00          2          2          2
  trivialnegation  :       0.00       0.00          0          0          0
  trustregion      :       0.00       0.00          0          0          0
  trysol           :       0.14       0.00          0          0          0
  twoopt           :       0.00       0.00          0          0          0
  undercover       :       2.49       0.00          1          1          1
  vbounds          :       0.00       0.00          0          0          0
  veclendiving     :      32.24       0.00        485          0          0
  zeroobj          :       0.00       0.00          0          0          0
  zirounding       :       0.24       0.00       1000          0          0
  other solutions  :          -          -          -          0          -
Diving (single)    :      Calls      Nodes   LP Iters Backtracks  Conflicts   MinDepth   MaxDepth   AvgDepth  RoundSols  NLeafSols  MinSolDpt  MaxSolDpt  AvgSolDpt
  actconsdiving    :          0          -          -          -          -          -          -          -          -          -          -          -          -
  coefdiving       :          0          -          -          -          -          -          -          -          -          -          -          -          -
  conflictdiving   :        484      17346     732853        419       6452         64         91       74.3          0          1         86         86       86.0
  distributiondivin:        484      15130     647545        566      10288         60         93       74.8          0          -          -          -          -
  farkasdiving     :          0          -          -          -          -          -          -          -          -          -          -          -          -
  fracdiving       :        484      71855     340135         94       1246         72        661      192.7          0          -          -          -          -
  guideddiving     :        484      57554     347675         64       2348         67        485      163.2          0          1        153        153      153.0
  indicatordiving  :          0          -          -          -          -          -          -          -          -          -          -          -          -
  linesearchdiving :        484      23396     368561        107       9247         64        111       90.8          0          5         84        101       92.0
  pscostdiving     :        484      20047     582046        502       8938         69         99       85.2          0          4         79         90       86.0
  veclendiving     :        485      18446     361803        407      20782         65         96       79.3          0          -          -          -          -
Diving (adaptive)  :      Calls      Nodes   LP Iters Backtracks  Conflicts   MinDepth   MaxDepth   AvgDepth  RoundSols  NLeafSols  MinSolDpt  MaxSolDpt  AvgSolDpt
  actconsdiving    :          3         64         94          3         22         68         73       70.7          0          -          -          -          -
  coefdiving       :         15        561       9166         10        403         69         94       81.6          0          -          -          -          -
  conflictdiving   :          0          -          -          -          -          -          -          -          -          -          -          -          -
  distributiondivin:          0          -          -          -          -          -          -          -          -          -          -          -          -
  farkasdiving     :          0          -          -          -          -          -          -          -          -          -          -          -          -
  fracdiving       :         11        856       2701          1         68         79        360      125.2          0          -          -          -          -
  guideddiving     :          8        828       4716          0          0        114        220      153.4          0          -          -          -          -
  indicatordiving  :          0          -          -          -          -          -          -          -          -          -          -          -          -
  linesearchdiving :         20        968      15448          2        359         72         99       89.2          0          -          -          -          -
  pscostdiving     :          4        158       3082          4         44         85         88       86.5          0          -          -          -          -
  veclendiving     :          9        270       3955          3        230         67         87       76.7          0          -          -          -          -
Neighborhoods      :      Calls  SetupTime  SolveTime SolveNodes       Sols       Best       Exp3  EpsGreedy        UCB TgtFixRate  Opt  Inf Node Stal  Sol  Usr Othr Actv
  rens             :          2       0.01       0.05         50          0          0    0.00000   -1.00000    0.47095      0.850    0    1    0    1    0    0    0    1
  rins             :          1       0.02       0.00          1          0          0    0.00000   -1.00000    0.56398      0.700    0    1    0    0    0    0    0    1
  mutation         :          1       0.00       0.01         23          0          0    0.00000   -1.00000    0.54428      0.700    0    1    0    0    0    0    0    1
  localbranching   :          2       0.03       0.03         60          0          0    0.00000   -1.00000    0.47045      0.850    0    1    0    1    0    0    0    1
  crossover        :          2       0.05       0.09         63          0          0    0.00000   -1.00000    0.47045      0.850    0    1    0    1    0    0    0    1
  proximity        :          2       0.04       0.09         57          0          0    0.00000   -1.00000    0.47045      0.850    0    1    0    1    0    0    0    1
  zeroobjective    :          1       0.00       0.01         51          0          0    0.00000   -1.00000    0.51398      0.700    0    1    0    0    0    0    0    1
  dins             :          2       0.03       0.05         54          0          0    0.00000   -1.00000    0.47045      0.850    0    1    0    1    0    0    0    1
  trustregion      :          0       0.00       0.00          0          0          0    0.00000   -1.00000    1.00000      0.900    0    0    0    0    0    0    0    0
Expressions        :   #IntEval  IntEvalTi   #RevProp  RevPropTi    DomReds    Cutoffs  #Estimate  EstimTime  Branching  #Simplify SimplifyTi Simplified
  pow              :          0       0.00          0       0.00          0          0          0       0.00          0          0       0.00          0
  prod             :      17820       0.00          0       0.00          0          0          0       0.00          0      10091       0.02          0
  sum              :          8       0.00          2       0.00          0          0          0       0.00          0          3       0.07          2
  var              :       4799       0.01          0       0.00          0          0          0       0.00          0      21714       0.01          0
  varidx           :          0       0.00          0       0.00          0          0          0       0.00          0          0       0.00          0
LP                 :       Time      Calls Iterations  Iter/call   Iter/sec  Time-0-It Calls-0-It    ItLimit
  primal LP        :      68.37      12074          0       0.00       0.00      68.34      12074
  dual LP          :    2572.02     210267   26501947     142.99   10303.94       6.66      24926
  lex dual LP      :       0.00          0          0       0.00          -
  barrier LP       :       0.00          0          0       0.00          -       0.00          0
  resolve instable :       0.00          0          0       0.00          -
  diving/probing LP:     373.60      32638    4391232     134.54   11753.83
  strong branching :      10.81        908     131402     144.72   12155.60          -          -        566
    (at root node) :          -         20       3089     154.45          -
  conflict analysis:       7.16       7202      67374       9.35    9409.78
NLP relaxation     :
  solve time       :       8.21 (21 calls)
  convexity        :  nonconvex (145 linear rows, 0 convex ineq., 0 nonconvex ineq., 1181 nonlinear eq. or two-sided ineq.)
NLP Solvers        :  #Problems  ProblemTi    #Solves  SolveTime      #Iter  Time/Iter      #Okay #TimeLimit #IterLimit #LObjLimit #Interrupt  #NumError #EvalError  #OutOfMem #LicenseEr #OtherTerm   #GlobOpt    #LocOpt  #Feasible #LocInfeas #GlobInfea #Unbounded   #Unknown
  ipopt            :         12       5.14         58      49.81       1770       0.03         56          0          2          0          0          0          0          0          0          0          0         37          0         18          0          0          3
B&B Tree           :
  number of runs   :          1
  nodes            :     162619 (112998 internal, 49621 leaves)
  feasible leaves  :          0
  infeas. leaves   :         35
  objective leaves :      49585
  nodes (total)    :     162619 (112998 internal, 49621 leaves)
  nodes left       :      59804
  max depth        :         79
  max depth (total):         79
  backtracks       :      33116 (20.4%)
  early backtracks :          0 (0.0%)
  nodes exc. ref.  :          0 (0.0%)
  delayed cutoffs  :          0
  repropagations   :       6300 (353 domain reductions, 0 cutoffs)
  avg switch length:       7.03
  switching time   :      96.51
Estim. Tree Size   :     332386
Estimation Tree    : 225997 nodes (166193 visited, 112998 internal, 53195 leaves, 59804 open), weight: 0.0000 completed 0.1020
Estimations        :      estim      value      trend resolution     smooth
  wbe              : 8293050572735333376          -          -          -          -
  tree-profile     :         -1          -          -          -          -
  gap              :    4540377    0.60030    0.00001         64    4392665
  tree-weight      :     332386    0.00000    0.00000         64     332157
  leaf-frequency   :     332386    0.32008   -0.00008         64     332157
  ssg              :   10089117    0.83897   -0.00001         64    9710714
  open-nodes       :     332386 59804.00000  197.26468         64     332157
Root Node          :
  First LP value   : -5.55465768799102e+00
  First LP Iters   :       2240 (20363.64 Iter/sec)
  First LP Time    :       0.11
  Final Dual Bound : -5.42818989574291e+00
  Final Root Iters :       2821
  Root LP Estimate : -2.63312106730065e+00
Solution           :
  Solutions found  :        145 (18 improvements)
  First Solution   : +1.00000000000000e+05   (in run 1, after 0 nodes, 0.03 seconds, depth 0, found by <trivial>)
  Gap First Sol.   :   infinite
  Gap Last Sol.    :      66.76 %
  Primal Bound     : -2.99551066217733e+00   (in run 1, after 145078 nodes, 1722.38 seconds, depth 42, found by <crossover>)
  Dual Bound       : -4.98998748255438e+00
  Gap              :      66.58 %
Integrals          :      Total       Avg%
  primal-dual      :  146858.82      40.79
  primal-ref       :          -          - (not evaluated)
  dual-ref         :          -          - (not evaluated)
